NAME          ClpDefau  FREE
ROWS
 N  OBJROW
 L  ZMUNI1_PCT
 L  ZMUNI2_PCT
 L  ZMUNI3_PCT
 L  ZMUNI4_PCT
 L  ZMUNI5_PCT
 L  ZMUNI6_PCT
 L  ZMUNI7_PCT
 L  ZMUNI8_PCT
 L  ZMUNI9_PCT
COLUMNS
    QMUNI1 OBJROW 1.          
    QMUNI1 ZMUNI1_PCT 27998.68584 
    QMUNI1 ZMUNI2_PCT 1655.67398  
    QMUNI1 ZMUNI3_PCT 4190.8264   
    QMUNI1 ZMUNI4_PCT 3034.478426 
    QMUNI1 ZMUNI5_PCT 57.26814    
    QMUNI1 ZMUNI6_PCT 267.88711   
    QMUNI1 ZMUNI7_PCT 1457.4051   
    QMUNI1 ZMUNI8_PCT 1093.0062   
    QMUNI1 ZMUNI9_PCT 192.5469    
    QMUNI2 OBJROW 1.          
    QMUNI2 ZMUNI1_PCT 1848.07777  
    QMUNI2 ZMUNI2_PCT 32941.15066 
    QMUNI2 ZMUNI3_PCT 2641.6778   
    QMUNI2 ZMUNI4_PCT 2768.39137  
    QMUNI2 ZMUNI5_PCT 170.27854   
    QMUNI2 ZMUNI6_PCT 275.37345   
    QMUNI2 ZMUNI7_PCT 1302.1469   
    QMUNI2 ZMUNI8_PCT 1591.6825   
    QMUNI2 ZMUNI9_PCT 1545.8107   
    QMUNI3 OBJROW 1.          
    QMUNI3 ZMUNI1_PCT 3938.77029  
    QMUNI3 ZMUNI2_PCT 2331.1615   
    QMUNI3 ZMUNI3_PCT 29072.5708  
    QMUNI3 ZMUNI4_PCT 4869.163036 
    QMUNI3 ZMUNI5_PCT  -483.94204 
    QMUNI3 ZMUNI6_PCT  -291.15677 
    QMUNI3 ZMUNI7_PCT 979.6142    
    QMUNI3 ZMUNI8_PCT 917.0533    
    QMUNI3 ZMUNI9_PCT 216.2934    
    QMUNI4 OBJROW 1.          
    QMUNI4 ZMUNI1_PCT 3520.82253  
    QMUNI4 ZMUNI2_PCT 3169.15512  
    QMUNI4 ZMUNI3_PCT 5700.4928   
    QMUNI4 ZMUNI4_PCT 102874.38929
    QMUNI4 ZMUNI5_PCT 260.97297   
    QMUNI4 ZMUNI6_PCT 416.27884   
    QMUNI4 ZMUNI7_PCT 1571.6552   
    QMUNI4 ZMUNI8_PCT 1615.8104   
    QMUNI4 ZMUNI9_PCT 1209.7359   
    QMUNI5 OBJROW 1.          
    QMUNI5 ZMUNI1_PCT  -331.02035 
    QMUNI5 ZMUNI2_PCT  -478.83988 
    QMUNI5 ZMUNI3_PCT  -409.2217  
    QMUNI5 ZMUNI4_PCT  -401.794911
    QMUNI5 ZMUNI5_PCT 31106.94885 
    QMUNI5 ZMUNI6_PCT 2170.80116  
    QMUNI5 ZMUNI7_PCT  -302.5055  
    QMUNI5 ZMUNI8_PCT  -539.2074  
    QMUNI5 ZMUNI9_PCT  -818.1572  
    QMUNI6 OBJROW 1.          
    QMUNI6 ZMUNI1_PCT 105.95322   
    QMUNI6 ZMUNI2_PCT  -95.1767   
    QMUNI6 ZMUNI3_PCT 11.3487     
    QMUNI6 ZMUNI4_PCT  -30.517578 
    QMUNI6 ZMUNI5_PCT 2314.42451  
    QMUNI6 ZMUNI6_PCT 30208.82606 
    QMUNI6 ZMUNI7_PCT 32.0434     
    QMUNI6 ZMUNI8_PCT  -214.9582  
    QMUNI6 ZMUNI9_PCT  -395.2026  
    QMUNI7 OBJROW 1.          
    QMUNI7 ZMUNI1_PCT 1031.16035  
    QMUNI7 ZMUNI2_PCT 377.65503   
    QMUNI7 ZMUNI3_PCT 825.2143    
    QMUNI7 ZMUNI4_PCT 559.514761  
    QMUNI7 ZMUNI5_PCT  -311.42235 
    QMUNI7 ZMUNI6_PCT  -85.16312  
    QMUNI7 ZMUNI7_PCT 26085.4721  
    QMUNI7 ZMUNI8_PCT 1679.039    
    QMUNI7 ZMUNI9_PCT  -82.3021   
    QMUNI8 OBJROW 1.          
    QMUNI8 ZMUNI1_PCT 742.62619   
    QMUNI8 ZMUNI2_PCT 572.49069   
    QMUNI8 ZMUNI3_PCT 758.2664    
    QMUNI8 ZMUNI4_PCT 552.05822   
    QMUNI8 ZMUNI5_PCT  -500.77439 
    QMUNI8 ZMUNI6_PCT  -387.81166 
    QMUNI8 ZMUNI7_PCT 1498.0316   
    QMUNI8 ZMUNI8_PCT 24995.4224  
    QMUNI8 ZMUNI9_PCT 474.3576    
    QMUNI9 OBJROW 1.          
    QMUNI9 ZMUNI1_PCT 214.52904   
    QMUNI9 ZMUNI2_PCT 512.98141   
    QMUNI9 ZMUNI3_PCT 299.5491    
    QMUNI9 ZMUNI4_PCT 256.371498  
    QMUNI9 ZMUNI5_PCT  -339.03122 
    QMUNI9 ZMUNI6_PCT  -313.47275 
    QMUNI9 ZMUNI7_PCT 87.738      
    QMUNI9 ZMUNI8_PCT 570.2019    
    QMUNI9 ZMUNI9_PCT 23646.4501  
RHS
    RHS ZMUNI1_PCT  -0.81392299
    RHS ZMUNI2_PCT  -1.02666377
    RHS ZMUNI3_PCT  -1.38466302
    RHS ZMUNI4_PCT 0.3501252203
    RHS ZMUNI5_PCT  -1.11360862
    RHS ZMUNI6_PCT  -0.74312369
    RHS ZMUNI7_PCT  -3.31459875
    RHS ZMUNI8_PCT  -2.78563927
    RHS ZMUNI9_PCT  -1.17935267
BOUNDS
 LO BOUND QMUNI1 -0.001155028
 UP BOUND QMUNI1      1.1e+10
 LO BOUND QMUNI2 -0.000848323
 UP BOUND QMUNI2      1.1e+10
 LO BOUND QMUNI3 -0.000925976
 UP BOUND QMUNI3      1.1e+10
 LO BOUND QMUNI4 -0.00030129 
 UP BOUND QMUNI4      1.1e+10
 LO BOUND QMUNI5 -0.000797762
 UP BOUND QMUNI5      1.1e+10
 LO BOUND QMUNI6 -0.000961538
 UP BOUND QMUNI6      1.1e+10
 LO BOUND QMUNI7 -0.000690822
 UP BOUND QMUNI7      1.1e+10
 LO BOUND QMUNI8 -0.000774958
 UP BOUND QMUNI8      1.1e+10
 LO BOUND QMUNI9 -0.000855325
 UP BOUND QMUNI9      1.1e+10
ENDATA
